62      4       
16      16      17      26      
0       0       0       0       0       3       2       3       4       
5       0       0       7       0       3       12      20      59      
10      0       7       0       0       3       9       10      32      
5       0       0       0       8       3       5       6       7       
1       9       0       0       0       3       16      19      29      
8       0       0       0       1       3       14      19      34      
9       0       0       3       0       3       8       13      18      
10      0       0       6       0       1       11      
6       0       0       0       7       3       28      44      49      
3       0       4       0       0       3       15      26      27      
7       0       0       7       0       3       21      30      42      
10      9       0       0       0       1       31      
6       0       0       0       3       3       15      24      41      
8       0       5       0       0       3       17      55      57      
5       0       0       0       5       3       20      33      37      
3       0       0       0       1       3       22      27      39      
3       0       4       0       0       3       25      36      37      
5       0       10      0       0       3       19      23      24      
4       7       0       0       0       3       27      37      55      
10      3       0       0       0       2       34      38      
9       0       9       0       0       3       25      28      47      
8       0       0       2       0       3       25      42      48      
5       1       0       0       0       3       31      40      49      
4       9       0       0       0       1       28      
5       0       0       0       3       3       41      43      53      
7       0       0       0       2       3       35      46      48      
5       0       0       5       0       3       31      44      52      
1       0       0       0       1       3       34      40      54      
5       0       0       0       10      3       35      40      48      
4       0       0       0       5       3       32      36      54      
6       0       9       0       0       2       33      35      
7       3       0       0       0       2       33      50      
8       0       0       0       4       2       47      61      
5       0       0       0       2       2       43      58      
6       0       0       1       0       2       45      47      
1       10      0       0       0       2       38      45      
8       0       0       9       0       3       39      45      60      
5       10      0       0       0       3       39      43      44      
3       0       6       0       0       1       58      
2       0       0       0       6       2       46      51      
1       0       0       0       8       1       59      
7       0       0       5       0       2       46      49      
6       5       0       0       0       1       56      
7       0       0       0       8       2       53      56      
10      0       5       0       0       1       51      
5       0       0       4       0       2       50      52      
4       0       0       8       0       1       56      
5       0       0       0       7       2       50      54      
10      0       0       0       10      2       51      52      
9       0       0       3       0       1       55      
8       0       0       0       10      1       53      
7       0       0       7       0       1       57      
6       0       9       0       0       1       58      
8       0       0       4       0       2       57      59      
4       9       0       0       0       1       61      
8       0       0       0       1       1       60      
2       3       0       0       0       1       60      
4       0       0       0       9       1       61      
4       0       0       0       9       1       62      
6       0       0       0       6       1       62      
10      2       0       0       0       1       62      
0       0       0       0       0       0       